beginners/examples/strings.out.smt2
sat
(
(define-fun p1 () Bool true)
(define-fun p2 () Bool false)
(define-fun p3 () Bool true)
(define-fun p4 () Bool true)
(define-fun p5 () Bool false)
(define-fun p6 () Bool false)
(define-fun p7 () Bool false)
(define-fun p8 () Bool false)
(define-fun p9 () Bool true)
(define-fun p10 () Bool false)
(define-fun p11 () Bool false)
(define-fun p12 () Bool false)
(define-fun x1 () String "a")
(define-fun x2 () String "bb")
(define-fun x3 () String "abb")
(define-fun x4 () String "aabb")
(define-fun x5 () String "abbaabb")
(define-fun i1 () String "a")
(define-fun i2 () String "bb")
(define-fun i3 () String "a")
(define-fun i4 () String "abb")
(define-fun i5 () String "abb")
(define-fun i6 () String "aabb")
)
